Minimize
  - 55 y_0 - 116 y_1 - 7 y_2 - 96 y_3 - 100 y_4 - 57 y_5 - 71 y_6 - 97 y_7
   - 45 y_8 - 100 y_9 - 101 y_10 - 71 y_11 - 87 y_12 - 101 y_13 - 65 y_14
   - 87 y_15 - 26 y_16 - 27 y_18 - 39 y_19 - 46 y_20 - 91 y_21 - 53 y_22
   - 48 y_23 - 37 y_24 - 49 y_25 - 79 y_26 - 71 y_27 - 91 y_28 - 86 y_29
   - 76 y_30 - 22 y_31 - 123 y_32 - 89 y_33 - 68 y_34 - 65 y_35 - 72 y_36
   - 63 y_37 - 117 y_38 - 65 y_39 - 87 y_40 - 84 y_41 - 93 y_42 - 68 y_43
   - 108 y_44 - 122 y_45 - 87 y_46 - 39 y_47 - 34 y_48 - 80 y_49 - 78 y_50
   - 50 y_51 - 125 y_52 - 88 y_53 - 57 y_54 - 68 y_55 - 101 y_56 - 104 y_57
   - 101 y_58 - 31 y_59 - 49 y_60 - 85 y_61 - 70 y_62 - 93 y_63 - 75 y_64
   - 85 y_65 - 82 y_66 - 55 y_67 - 104 y_68 - 68 y_69 - 33 y_70 - 87 y_71
   - 96 y_72 - 105 y_73 - 95 y_74 - 55 y_75 - 40 y_76 - 60 y_77 - 52 y_78
   - 112 y_79 - 72 y_80 - 102 y_81 - 61 y_82 - 61 y_83 - 79 y_84 - 44 y_85
   - 86 y_86 - 115 y_87 - 22 y_88 - 67 y_89 - 64 y_90 - 46 y_91 - 92 y_92
   - 89 y_93 - 58 y_94 - 63 y_95 - 54 y_96 - 15 y_97 - 104 y_98 - 34 y_99
   + 7193 Constant
Subject To
 c_0: y_61 = 1
 c_1_0: y_0 >= 1
 c_1_1: y_1 >= 1
 c_1_2: y_2 >= 1
 c_1_3: y_3 >= 1
 c_1_4: y_4 >= 1
 c_1_5: y_5 >= 1
 c_1_6: y_6 >= 1
 c_1_7: y_7 >= 1
 c_1_8: y_8 >= 1
 c_1_9: y_9 >= 1
 c_1_10: y_10 >= 1
 c_1_11: y_11 >= 1
 c_1_12: y_12 >= 1
 c_1_13: y_13 >= 1
 c_1_14: y_14 >= 1
 c_1_15: y_15 >= 1
 c_1_16: y_16 >= 1
 c_1_17: y_17 >= 1
 c_1_18: y_18 >= 1
 c_1_19: y_19 >= 1
 c_1_20: y_20 >= 1
 c_1_21: y_21 >= 1
 c_1_22: y_22 >= 1
 c_1_23: y_23 >= 1
 c_1_24: y_24 >= 1
 c_1_25: y_25 >= 1
 c_1_26: y_26 >= 1
 c_1_27: y_27 >= 1
 c_1_28: y_28 >= 1
 c_1_29: y_29 >= 1
 c_1_30: y_30 >= 1
 c_1_31: y_31 >= 1
 c_1_32: y_32 >= 1
 c_1_33: y_33 >= 1
 c_1_34: y_34 >= 1
 c_1_35: y_35 >= 1
 c_1_36: y_36 >= 1
 c_1_37: y_37 >= 1
 c_1_38: y_38 >= 1
 c_1_39: y_39 >= 1
 c_1_40: y_40 >= 1
 c_1_41: y_41 >= 1
 c_1_42: y_42 >= 1
 c_1_43: y_43 >= 1
 c_1_44: y_44 >= 1
 c_1_45: y_45 >= 1
 c_1_46: y_46 >= 1
 c_1_47: y_47 >= 1
 c_1_48: y_48 >= 1
 c_1_49: y_49 >= 1
 c_1_50: y_50 >= 1
 c_1_51: y_51 >= 1
 c_1_52: y_52 >= 1
 c_1_53: y_53 >= 1
 c_1_54: y_54 >= 1
 c_1_55: y_55 >= 1
 c_1_56: y_56 >= 1
 c_1_57: y_57 >= 1
 c_1_58: y_58 >= 1
 c_1_59: y_59 >= 1
 c_1_60: y_60 >= 1
 c_1_61: y_61 >= 1
 c_1_62: y_62 >= 1
 c_1_63: y_63 >= 1
 c_1_64: y_64 >= 1
 c_1_65: y_65 >= 1
 c_1_66: y_66 >= 1
 c_1_67: y_67 >= 1
 c_1_68: y_68 >= 1
 c_1_69: y_69 >= 1
 c_1_70: y_70 >= 1
 c_1_71: y_71 >= 1
 c_1_72: y_72 >= 1
 c_1_73: y_73 >= 1
 c_1_74: y_74 >= 1
 c_1_75: y_75 >= 1
 c_1_76: y_76 >= 1
 c_1_77: y_77 >= 1
 c_1_78: y_78 >= 1
 c_1_79: y_79 >= 1
 c_1_80: y_80 >= 1
 c_1_81: y_81 >= 1
 c_1_82: y_82 >= 1
 c_1_83: y_83 >= 1
 c_1_84: y_84 >= 1
 c_1_85: y_85 >= 1
 c_1_86: y_86 >= 1
 c_1_87: y_87 >= 1
 c_1_88: y_88 >= 1
 c_1_89: y_89 >= 1
 c_1_90: y_90 >= 1
 c_1_91: y_91 >= 1
 c_1_92: y_92 >= 1
 c_1_93: y_93 >= 1
 c_1_94: y_94 >= 1
 c_1_95: y_95 >= 1
 c_1_96: y_96 >= 1
 c_1_97: y_97 >= 1
 c_1_98: y_98 >= 1
 c_1_99: y_99 >= 1
Bounds
 Constant = 1
Binaries
 y_0 y_1 y_2 y_3 y_4 y_5 y_6 y_7 y_8 y_9 y_10 y_11 y_12 y_13 y_14 y_15 y_16
 y_17 y_18 y_19 y_20 y_21 y_22 y_23 y_24 y_25 y_26 y_27 y_28 y_29 y_30 y_31
 y_32 y_33 y_34 y_35 y_36 y_37 y_38 y_39 y_40 y_41 y_42 y_43 y_44 y_45 y_46
 y_47 y_48 y_49 y_50 y_51 y_52 y_53 y_54 y_55 y_56 y_57 y_58 y_59 y_60 y_61
 y_62 y_63 y_64 y_65 y_66 y_67 y_68 y_69 y_70 y_71 y_72 y_73 y_74 y_75 y_76
 y_77 y_78 y_79 y_80 y_81 y_82 y_83 y_84 y_85 y_86 y_87 y_88 y_89 y_90 y_91
 y_92 y_93 y_94 y_95 y_96 y_97 y_98 y_99
End
